{"OBJ_VAL": 399, "status": "optimal", "Name": "scp58", "time": "N/A", "X": [0, 1, 2, 3, 4, 5, 6, 7, 8, 10, 12, 13, 14, 16, 20, 21, 22, 23, 26, 27, 28, 29, 30, 33, 36, 40, 42, 43, 44, 47, 49, 50, 52, 56, 62, 63, 65, 67, 68, 70, 75, 76, 82, 88, 90, 94, 95, 97, 102, 105, 113, 120, 137, 138, 139, 140, 142, 143, 153, 154, 155, 156, 164, 169, 170, 171, 172, 175, 199, 206, 237, 240, 256, 316, 475, 548], "Pi": [-0.0, -0.0, 1.0, -0.0, -0.0, -0.0, -0.0, -0.0, -0.0, -0.0, 1.0, -0.0, -0.0, 3.0, 1.0, -0.0, -0.0, -0.0, 5.0, -0.0, 12.0, 4.0, -0.0, 5.0, -0.0, 5.0, -0.0, -0.0, -0.0, -0.0, -0.0, -0.0, -0.0, 4.0, 2.0, 0.0, 4.0, -0.0, 0.0, 4.0, 3.0, 4.0, -0.0, -0.0, -0.0, -0.0, -0.0, -0.0, 1.0, 10.0, -0.0, 3.0, 1.0, 8.0, -0.0, -0.0, 1.0, -0.0, -0.0, 5.0, 3.0, -0.0, -0.0, 4.0, -0.0, -0.0, -0.0, -0.0, -0.0, 25.0, -0.0, -0.0, -0.0, -0.0, 3.0, 4.0, 1.0, 1.0, -0.0, 1.0, 4.0, -0.0, -0.0, -0.0, -0.0, -0.0, 2.0, -0.0, 1.0, -0.0, 4.0, 2.0, 3.0, -0.0, 2.0, -0.0, 4.0, 0.0, 0.0, -0.0, 3.0, 1.0, -0.0, 5.0, 3.0, -0.0, 1.0, -0.0, -0.0, 2.0, 3.0, 3.0, 0.0, 1.0, 2.0, -0.0, 1.0, -0.0, -0.0, -0.0, -0.0, -0.0, -0.0, 1.0, 2.0, 3.0, 4.0, 2.0, 2.0, -0.0, 4.0, -0.0, 1.0, 2.0, 2.0, 2.0, 6.0, 5.0, -0.0, -0.0, -0.0, 5.0, 2.0, 2.0, -0.0, -0.0, 1.0, -0.0, -0.0, 0.0, 1.0, 2.0, 0.0, 3.0, 0.0, -0.0, -0.0, -0.0, 0.0, 1.0, -0.0, 7.0, 1.0, -0.0, -0.0, -0.0, -0.0, 1.0, 1.0, 1.0, -0.0, -0.0, 1.0, 4.0, 2.0, -0.0, -0.0, -0.0, 3.0, -0.0, 3.0, 2.0, 4.0, 2.0, -0.0, -0.0, -0.0, 3.0, 3.0, -0.0, -0.0, 1.0, 4.0, 6.0, 2.0, 4.0, -0.0, 3.0, -0.0, -0.0], "Dj": [0.0, 0.0, 0.0, 0.0, 0.0, 0.0, 0.0, 0.0, 0.0, 0.0, 0.0, 1.0, 0.0, 0.0, 0.0, 1.0, 0.0, 1.0, 0.0, 1.0, 0.0, 0.0, 0.0, 0.0, 0.0, 2.0, 0.0, 0.0, 0.0, 0.0, 0.0, 0.0, 2.0, 0.0, 0.0, 1.0, 0.0, 0.0, 1.0, 2.0, 0.0, 0.0, 0.0, 0.0, 0.0, 3.0, 0.0, 0.0, 1.0, 0.0, 0.0, 3.0, 0.0, 3.0, 3.0, 2.0, 0.0, 1.0, 2.0, 3.0, 3.0, 3.0, 0.0, 0.0, 0.0, 0.0, 0.0, 0.0, 0.0, 1.0, 0.0, 0.0, 0.0, 1.0, 3.0, 0.0, 0.0, 2.0, 4.0, 0.0, 3.0, 2.0, 0.0, 0.0, 0.0, 3.0, 3.0, 0.0, 0.0, 2.0, 0.0, 5.0, 5.0, 0.0, 0.0, 0.0, 4.0, 0.0, 4.0, 0.0, 4.0, 0.0, 0.0, 0.0, 5.0, 0.0, 3.0, 0.0, 0.0, 1.0, 5.0, 5.0, 2.0, 0.0, 6.0, 0.0, 1.0, 6.0, 2.0, 0.0, 0.0, 0.0, 0.0, 1.0, 5.0, 0.0, 4.0, 1.0, 4.0, 4.0, 2.0, 6.0, 3.0, 4.0, 3.0, 6.0, 0.0, 0.0, 0.0, 0.0, 0.0, 5.0, 0.0, 0.0, 2.0, 7.0, 0.0, 7.0, 2.0, 7.0, 7.0, 5.0, 5.0, 0.0, 0.0, 0.0, 0.0, 1.0, 2.0, 0.0, 4.0, 4.0, 5.0, 3.0, 0.0, 6.0, 3.0, 0.0, 6.0, 0.0, 0.0, 0.0, 0.0, 6.0, 6.0, 0.0, 5.0, 1.0, 8.0, 1.0, 6.0, 4.0, 0.0, 0.0, 5.0, 3.0, 8.0, 1.0, 4.0, 8.0, 6.0, 9.0, 5.0, 9.0, 9.0, 8.0, 8.0, 9.0, 1.0, 0.0, 1.0, 0.0, 0.0, 2.0, 8.0, 4.0, 0.0, 7.0, 5.0, 3.0, 10.0, 4.0, 5.0, 8.0, 5.0, 4.0, 0.0, 3.0, 9.0, 6.0, 3.0, 1.0, 9.0, 2.0, 7.0, 9.0, 0.0, 4.0, 7.0, 6.0, 0.0, 7.0, 7.0, 11.0, 6.0, 10.0, 5.0, 0.0, 6.0, 10.0, 0.0, 3.0, 7.0, 10.0, 12.0, 6.0, 10.0, 9.0, 9.0, 8.0, 12.0, 10.0, 4.0, 12.0, 8.0, 0.0, 0.0, 12.0, 11.0, 10.0, 9.0, 12.0, 11.0, 10.0, 12.0, 5.0, 9.0, 9.0, 3.0, 12.0, 13.0, 11.0, 8.0, 5.0, 8.0, 8.0, 7.0, 14.0, 0.0, 14.0, 12.0, 11.0, 9.0, 10.0, 14.0, 9.0, 2.0, 3.0, 8.0, 6.0, 2.0, 0.0, 10.0, 10.0, 5.0, 10.0, 11.0, 10.0, 12.0, 12.0, 10.0, 9.0, 11.0, 13.0, 10.0, 14.0, 13.0, 10.0, 0.0, 14.0, 9.0, 4.0, 14.0, 7.0, 6.0, 15.0, 0.0, 15.0, 15.0, 13.0, 16.0, 11.0, 16.0, 16.0, 14.0, 11.0, 4.0, 13.0, 13.0, 16.0, 15.0, 11.0, 14.0, 12.0, 12.0, 12.0, 17.0, 17.0, 11.0, 6.0, 5.0, 11.0, 13.0, 14.0, 15.0, 14.0, 16.0, 10.0, 15.0, 12.0, 17.0, 10.0, 18.0, 14.0, 15.0, 8.0, 3.0, 17.0, 11.0, 12.0, 12.0, 7.0, 15.0, 10.0, 9.0, 5.0, 13.0, 15.0, 11.0, 19.0, 13.0, 11.0, 13.0, 12.0, 17.0, 12.0, 17.0, 17.0, 19.0, 15.0, 11.0, 8.0, 20.0, 19.0, 14.0, 19.0, 19.0, 19.0, 20.0, 19.0, 17.0, 6.0, 16.0, 11.0, 14.0, 13.0, 15.0, 14.0, 13.0, 16.0, 13.0, 20.0, 7.0, 17.0, 18.0, 18.0, 17.0, 18.0, 18.0, 13.0, 12.0, 15.0, 19.0, 18.0, 9.0, 20.0, 18.0, 11.0, 6.0, 11.0, 17.0, 13.0, 17.0, 19.0, 22.0, 16.0, 17.0, 22.0, 22.0, 18.0, 11.0, 7.0, 17.0, 11.0, 21.0, 14.0, 19.0, 9.0, 20.0, 15.0, 12.0, 20.0, 21.0, 19.0, 20.0, 20.0, 23.0, 23.0, 16.0, 22.0, 18.0, 20.0, 20.0, 16.0, 20.0, 10.0, 24.0, 22.0, 23.0, 19.0, 21.0, 24.0, 15.0, 23.0, 23.0, 20.0, 8.0, 22.0, 19.0, 23.0, 8.0, 25.0, 13.0, 22.0, 16.0, 0.0, 19.0, 20.0, 20.0, 22.0, 25.0, 21.0, 22.0, 17.0, 20.0, 0.0, 19.0, 20.0, 23.0, 23.0, 19.0, 15.0, 21.0, 19.0, 26.0, 11.0, 20.0, 25.0, 20.0, 21.0, 17.0, 22.0, 19.0, 22.0, 26.0, 19.0, 24.0, 24.0, 25.0, 24.0, 17.0, 22.0, 24.0, 17.0, 19.0, 18.0, 26.0, 24.0, 22.0, 11.0, 19.0, 23.0, 19.0, 21.0, 27.0, 2.0, 23.0, 15.0, 27.0, 27.0, 25.0, 23.0, 23.0, 21.0, 26.0, 22.0, 22.0, 25.0, 27.0, 23.0, 18.0, 16.0, 12.0, 24.0, 9.0, 20.0, 18.0, 18.0, 0.0, 24.0, 13.0, 14.0, 20.0, 23.0, 21.0, 15.0, 25.0, 28.0, 23.0, 23.0, 28.0, 15.0, 25.0, 18.0, 26.0, 22.0, 25.0, 13.0, 19.0, 29.0, 26.0, 21.0, 26.0, 25.0, 23.0, 28.0, 26.0, 17.0, 18.0, 17.0, 24.0, 23.0, 26.0, 26.0, 18.0, 27.0, 28.0, 29.0, 30.0, 28.0, 28.0, 23.0, 30.0, 4.0, 14.0, 26.0, 25.0, 23.0, 27.0, 19.0, 21.0, 23.0, 22.0, 22.0, 25.0, 30.0, 24.0, 25.0, 26.0, 27.0, 23.0, 26.0, 21.0, 25.0, 26.0, 30.0, 31.0, 31.0, 31.0, 24.0, 21.0, 31.0, 19.0, 32.0, 23.0, 27.0, 18.0, 31.0, 32.0, 25.0, 27.0, 28.0, 28.0, 22.0, 29.0, 29.0, 32.0, 26.0, 32.0, 1.0, 29.0, 15.0, 28.0, 28.0, 30.0, 17.0, 32.0, 30.0, 29.0, 33.0, 29.0, 29.0, 28.0, 30.0, 23.0, 27.0, 28.0, 31.0, 29.0, 33.0, 31.0, 28.0, 29.0, 33.0, 31.0, 30.0, 34.0, 29.0, 34.0, 32.0, 33.0, 31.0, 27.0, 29.0, 29.0, 3.0, 32.0, 28.0, 29.0, 33.0, 34.0, 33.0, 32.0, 34.0, 29.0, 34.0, 30.0, 33.0, 15.0, 31.0, 34.0, 19.0, 33.0, 35.0, 29.0, 31.0, 34.0, 27.0, 27.0, 32.0, 30.0, 35.0, 32.0, 31.0, 36.0, 35.0, 20.0, 31.0, 24.0, 30.0, 26.0, 31.0, 28.0, 32.0, 31.0, 32.0, 37.0, 35.0, 36.0, 31.0, 33.0, 33.0, 37.0, 37.0, 17.0, 34.0, 28.0, 32.0, 33.0, 34.0, 36.0, 36.0, 34.0, 34.0, 38.0, 32.0, 37.0, 38.0, 32.0, 23.0, 25.0, 35.0, 26.0, 26.0, 31.0, 30.0, 34.0, 33.0, 34.0, 37.0, 25.0, 39.0, 37.0, 32.0, 37.0, 36.0, 37.0, 39.0, 31.0, 30.0, 33.0, 33.0, 26.0, 36.0, 33.0, 33.0, 34.0, 25.0, 27.0, 31.0, 32.0, 40.0, 39.0, 36.0, 40.0, 39.0, 35.0, 36.0, 40.0, 23.0, 38.0, 34.0, 41.0, 39.0, 38.0, 38.0, 40.0, 41.0, 37.0, 41.0, 38.0, 36.0, 41.0, 31.0, 37.0, 40.0, 40.0, 42.0, 39.0, 38.0, 40.0, 41.0, 34.0, 36.0, 42.0, 37.0, 42.0, 38.0, 39.0, 33.0, 42.0, 27.0, 32.0, 31.0, 34.0, 37.0, 42.0, 41.0, 39.0, 32.0, 43.0, 43.0, 29.0, 34.0, 40.0, 33.0, 43.0, 42.0, 42.0, 44.0, 40.0, 42.0, 39.0, 43.0, 39.0, 30.0, 34.0, 42.0, 44.0, 43.0, 43.0, 32.0, 40.0, 38.0, 42.0, 33.0, 45.0, 39.0, 38.0, 45.0, 43.0, 37.0, 39.0, 45.0, 45.0, 36.0, 42.0, 38.0, 34.0, 42.0, 42.0, 44.0, 45.0, 45.0, 45.0, 42.0, 26.0, 38.0, 39.0, 38.0, 45.0, 42.0, 42.0, 38.0, 46.0, 46.0, 46.0, 44.0, 42.0, 45.0, 43.0, 44.0, 35.0, 37.0, 40.0, 39.0, 38.0, 44.0, 41.0, 42.0, 38.0, 47.0, 47.0, 41.0, 45.0, 44.0, 46.0, 44.0, 37.0, 35.0, 41.0, 43.0, 42.0, 47.0, 45.0, 45.0, 48.0, 47.0, 47.0, 46.0, 47.0, 44.0, 42.0, 19.0, 43.0, 29.0, 40.0, 43.0, 37.0, 48.0, 45.0, 41.0, 42.0, 47.0, 44.0, 44.0, 48.0, 44.0, 48.0, 42.0, 45.0, 43.0, 46.0, 44.0, 44.0, 47.0, 41.0, 45.0, 39.0, 49.0, 43.0, 40.0, 47.0, 50.0, 47.0, 44.0, 42.0, 45.0, 50.0, 45.0, 45.0, 50.0, 50.0, 48.0, 50.0, 20.0, 22.0, 48.0, 18.0, 51.0, 40.0, 44.0, 49.0, 50.0, 41.0, 48.0, 49.0, 51.0, 49.0, 47.0, 34.0, 51.0, 45.0, 47.0, 51.0, 48.0, 45.0, 48.0, 51.0, 32.0, 41.0, 37.0, 35.0, 46.0, 46.0, 44.0, 43.0, 50.0, 51.0, 49.0, 51.0, 48.0, 44.0, 48.0, 48.0, 50.0, 50.0, 50.0, 50.0, 50.0, 48.0, 52.0, 49.0, 50.0, 50.0, 39.0, 50.0, 49.0, 48.0, 38.0, 49.0, 50.0, 48.0, 50.0, 53.0, 46.0, 49.0, 53.0, 53.0, 52.0, 51.0, 48.0, 44.0, 50.0, 50.0, 47.0, 33.0, 47.0, 49.0, 45.0, 49.0, 50.0, 51.0, 49.0, 48.0, 48.0, 54.0, 46.0, 50.0, 54.0, 50.0, 49.0, 49.0, 50.0, 46.0, 54.0, 51.0, 54.0, 50.0, 54.0, 51.0, 49.0, 46.0, 43.0, 45.0, 53.0, 35.0, 52.0, 55.0, 52.0, 48.0, 46.0, 51.0, 54.0, 52.0, 52.0, 52.0, 48.0, 55.0, 55.0, 34.0, 40.0, 37.0, 56.0, 51.0, 52.0, 48.0, 51.0, 45.0, 56.0, 49.0, 43.0, 54.0, 50.0, 50.0, 53.0, 51.0, 52.0, 55.0, 52.0, 56.0, 51.0, 43.0, 50.0, 56.0, 53.0, 39.0, 39.0, 51.0, 42.0, 33.0, 27.0, 54.0, 56.0, 50.0, 50.0, 54.0, 56.0, 55.0, 55.0, 52.0, 57.0, 54.0, 53.0, 56.0, 57.0, 57.0, 44.0, 43.0, 48.0, 44.0, 54.0, 58.0, 54.0, 52.0, 53.0, 53.0, 53.0, 51.0, 54.0, 58.0, 56.0, 55.0, 58.0, 55.0, 55.0, 58.0, 53.0, 55.0, 56.0, 56.0, 53.0, 56.0, 58.0, 48.0, 53.0, 54.0, 53.0, 56.0, 59.0, 56.0, 53.0, 59.0, 56.0, 50.0, 54.0, 55.0, 59.0, 58.0, 54.0, 53.0, 59.0, 50.0, 53.0, 59.0, 46.0, 48.0, 54.0, 59.0, 53.0, 53.0, 45.0, 46.0, 51.0, 58.0, 52.0, 58.0, 57.0, 49.0, 57.0, 53.0, 54.0, 59.0, 59.0, 60.0, 55.0, 43.0, 40.0, 56.0, 55.0, 59.0, 55.0, 55.0, 61.0, 60.0, 61.0, 57.0, 57.0, 56.0, 55.0, 60.0, 60.0, 53.0, 60.0, 59.0, 60.0, 61.0, 58.0, 60.0, 59.0, 52.0, 57.0, 58.0, 57.0, 62.0, 57.0, 60.0, 52.0, 58.0, 62.0, 61.0, 58.0, 59.0, 57.0, 35.0, 47.0, 61.0, 56.0, 59.0, 59.0, 60.0, 62.0, 53.0, 59.0, 60.0, 53.0, 59.0, 56.0, 57.0, 62.0, 56.0, 57.0, 52.0, 55.0, 50.0, 51.0, 59.0, 34.0, 55.0, 61.0, 59.0, 57.0, 60.0, 62.0, 63.0, 64.0, 64.0, 64.0, 28.0, 59.0, 52.0, 51.0, 55.0, 57.0, 61.0, 57.0, 55.0, 62.0, 64.0, 60.0, 62.0, 62.0, 62.0, 59.0, 60.0, 60.0, 57.0, 62.0, 65.0, 64.0, 65.0, 65.0, 66.0, 58.0, 63.0, 63.0, 62.0, 52.0, 61.0, 54.0, 61.0, 63.0, 57.0, 64.0, 62.0, 57.0, 63.0, 60.0, 65.0, 65.0, 64.0, 58.0, 66.0, 64.0, 61.0, 62.0, 65.0, 56.0, 65.0, 63.0, 62.0, 66.0, 53.0, 47.0, 57.0, 55.0, 61.0, 61.0, 64.0, 61.0, 61.0, 61.0, 62.0, 62.0, 63.0, 64.0, 67.0, 67.0, 66.0, 67.0, 60.0, 55.0, 61.0, 65.0, 66.0, 55.0, 58.0, 61.0, 60.0, 64.0, 61.0, 60.0, 67.0, 61.0, 65.0, 59.0, 61.0, 64.0, 68.0, 67.0, 68.0, 60.0, 65.0, 68.0, 58.0, 69.0, 65.0, 64.0, 65.0, 65.0, 69.0, 39.0, 64.0, 69.0, 68.0, 67.0, 61.0, 64.0, 63.0, 69.0, 62.0, 66.0, 68.0, 59.0, 66.0, 67.0, 66.0, 55.0, 70.0, 64.0, 56.0, 58.0, 67.0, 60.0, 41.0, 57.0, 60.0, 69.0, 67.0, 68.0, 66.0, 62.0, 67.0, 60.0, 70.0, 67.0, 66.0, 60.0, 67.0, 68.0, 68.0, 62.0, 58.0, 57.0, 67.0, 67.0, 70.0, 59.0, 67.0, 65.0, 37.0, 64.0, 66.0, 69.0, 64.0, 66.0, 68.0, 45.0, 59.0, 71.0, 71.0, 71.0, 70.0, 70.0, 60.0, 67.0, 71.0, 67.0, 62.0, 57.0, 67.0, 61.0, 66.0, 60.0, 67.0, 68.0, 68.0, 72.0, 67.0, 69.0, 69.0, 72.0, 56.0, 63.0, 65.0, 57.0, 67.0, 72.0, 73.0, 43.0, 70.0, 67.0, 73.0, 73.0, 72.0, 69.0, 73.0, 73.0, 68.0, 73.0, 73.0, 69.0, 73.0, 63.0, 70.0, 72.0, 71.0, 71.0, 69.0, 53.0, 59.0, 73.0, 72.0, 70.0, 73.0, 71.0, 74.0, 73.0, 64.0, 74.0, 67.0, 75.0, 65.0, 69.0, 69.0, 72.0, 74.0, 65.0, 61.0, 75.0, 62.0, 72.0, 63.0, 62.0, 75.0, 72.0, 63.0, 71.0, 75.0, 70.0, 71.0, 73.0, 72.0, 70.0, 76.0, 73.0, 73.0, 74.0, 68.0, 69.0, 66.0, 70.0, 66.0, 70.0, 70.0, 76.0, 70.0, 75.0, 73.0, 51.0, 72.0, 76.0, 72.0, 76.0, 35.0, 70.0, 68.0, 72.0, 74.0, 69.0, 73.0, 74.0, 72.0, 75.0, 63.0, 71.0, 77.0, 76.0, 74.0, 77.0, 74.0, 73.0, 75.0, 58.0, 75.0, 70.0, 59.0, 71.0, 70.0, 62.0, 73.0, 56.0, 60.0, 66.0, 71.0, 77.0, 75.0, 75.0, 76.0, 78.0, 72.0, 71.0, 74.0, 78.0, 78.0, 77.0, 66.0, 70.0, 71.0, 72.0, 74.0, 50.0, 74.0, 79.0, 49.0, 77.0, 69.0, 67.0, 73.0, 78.0, 78.0, 77.0, 73.0, 78.0, 70.0, 65.0, 50.0, 75.0, 75.0, 72.0, 77.0, 73.0, 62.0, 78.0, 74.0, 75.0, 76.0, 70.0, 73.0, 80.0, 74.0, 76.0, 79.0, 72.0, 75.0, 79.0, 80.0, 74.0, 76.0, 72.0, 75.0, 67.0, 77.0, 79.0, 77.0, 76.0, 80.0, 76.0, 70.0, 74.0, 74.0, 80.0, 67.0, 72.0, 78.0, 76.0, 77.0, 77.0, 79.0, 73.0, 71.0, 81.0, 73.0, 81.0, 76.0, 81.0, 81.0, 74.0, 71.0, 75.0, 73.0, 65.0, 67.0, 76.0, 82.0, 78.0, 79.0, 78.0, 79.0, 78.0, 72.0, 80.0, 75.0, 72.0, 73.0, 79.0, 77.0, 77.0, 78.0, 72.0, 76.0, 80.0, 71.0, 55.0, 74.0, 78.0, 83.0, 76.0, 78.0, 82.0, 83.0, 78.0, 79.0, 76.0, 77.0, 81.0, 82.0, 72.0, 79.0, 71.0, 76.0, 74.0, 80.0, 81.0, 84.0, 82.0, 84.0, 77.0, 84.0, 75.0, 80.0, 69.0, 77.0, 84.0, 74.0, 80.0, 77.0, 83.0, 79.0, 77.0, 82.0, 85.0, 81.0, 78.0, 77.0, 81.0, 84.0, 83.0, 75.0, 73.0, 79.0, 83.0, 78.0, 75.0, 82.0, 81.0, 86.0, 78.0, 74.0, 80.0, 83.0, 85.0, 81.0, 85.0, 81.0, 61.0, 81.0, 77.0, 81.0, 85.0, 72.0, 64.0, 83.0, 83.0, 85.0, 83.0, 84.0, 80.0, 72.0, 81.0, 82.0, 86.0, 81.0, 87.0, 87.0, 86.0, 84.0, 87.0, 87.0, 87.0, 87.0, 87.0, 87.0, 81.0, 85.0, 81.0, 79.0, 81.0, 82.0, 80.0, 72.0, 84.0, 84.0, 83.0, 86.0, 84.0, 53.0, 85.0, 87.0, 88.0, 84.0, 86.0, 88.0, 87.0, 87.0, 82.0, 62.0, 89.0, 88.0, 85.0, 85.0, 89.0, 77.0, 89.0, 85.0, 85.0, 85.0, 83.0, 78.0, 87.0, 89.0, 89.0, 86.0, 88.0, 75.0, 83.0, 90.0, 90.0, 81.0, 90.0, 88.0, 90.0, 87.0, 81.0, 89.0, 89.0, 87.0, 86.0, 90.0, 88.0, 73.0, 83.0, 81.0, 86.0, 81.0, 89.0, 81.0, 88.0, 86.0, 83.0, 91.0, 87.0, 84.0, 79.0, 91.0, 88.0, 86.0, 84.0, 91.0, 73.0, 82.0, 92.0, 85.0, 90.0, 88.0, 90.0, 90.0, 77.0, 88.0, 84.0, 92.0, 84.0, 84.0, 91.0, 84.0, 90.0, 92.0, 89.0, 90.0, 92.0, 75.0, 84.0, 79.0, 82.0, 89.0, 93.0, 64.0, 82.0, 87.0, 88.0, 91.0, 86.0, 85.0, 92.0, 92.0, 90.0, 90.0, 93.0, 93.0, 82.0, 86.0, 81.0, 89.0, 78.0, 88.0, 84.0, 93.0, 85.0, 90.0, 93.0, 82.0, 85.0, 91.0, 90.0, 88.0, 85.0, 87.0, 89.0, 90.0, 92.0, 94.0, 90.0, 91.0, 91.0, 84.0, 78.0, 92.0, 91.0, 86.0, 69.0, 91.0, 95.0, 92.0, 89.0, 91.0, 83.0, 88.0, 93.0, 94.0, 95.0, 90.0, 92.0, 89.0, 94.0, 94.0, 90.0, 92.0, 60.0, 90.0, 82.0, 92.0, 90.0, 96.0, 91.0, 86.0, 94.0, 96.0, 96.0, 96.0, 94.0, 96.0, 85.0, 86.0, 88.0, 90.0, 93.0, 67.0, 94.0, 92.0, 97.0, 90.0, 95.0, 95.0, 97.0, 85.0, 97.0, 96.0, 97.0, 95.0, 95.0, 97.0, 97.0, 80.0, 88.0, 95.0, 94.0, 78.0, 98.0, 88.0, 69.0, 94.0, 93.0, 89.0, 95.0, 96.0, 96.0, 95.0, 92.0, 92.0, 97.0, 96.0, 97.0, 98.0, 98.0, 93.0, 91.0, 82.0, 99.0, 73.0, 87.0, 98.0, 99.0, 92.0, 94.0, 95.0, 94.0, 80.0, 95.0, 94.0, 100.0, 95.0, 91.0, 99.0, 95.0, 93.0, 100.0, 97.0, 95.0, 98.0, 100.0], "slack": [-0.6666666666666667, -1.6666666666666667, 0.0, -1.3333333333333333, 0.0, -0.6666666666666667, -1.6666666666666667, -0.33333333333333326, -1.6666666666666667, -3.0, 0.0, -0.33333333333333326, -0.3333333333333335, 0.0, 0.0, -0.33333333333333326, -0.33333333333333326, -0.6666666666666667, 0.0, -0.6666666666666667, 0.0, 0.0, 0.0, 0.0, -0.6666666666666665, 0.0, -1.3333333333333333, -0.6666666666666667, -1.6666666666666667, -1.3333333333333335, -0.3333333333333335, -0.3333333333333335, -2.220446049250313e-16, 0.0, 0.0, 0.0, 0.0, -1.0, 0.0, 0.0, 0.0, 0.0, -1.0, -0.33333333333333326, -1.0, -1.0, -1.6666666666666665, -0.6666666666666665, 0.0, 0.0, -1.0, 0.0, 0.0, 0.0, -0.6666666666666667, 0.0, 0.0, -1.0, 0.0, 0.0, 0.0, -0.6666666666666665, -0.33333333333333326, 0.0, -2.220446049250313e-16, -0.33333333333333326, -1.6666666666666667, -2.333333333333333, -2.333333333333333, 0.0, -1.0, -1.0, -0.6666666666666667, 0.0, 0.0, 0.0, 0.0, 0.0, -1.0, 0.0, 0.0, -1.6666666666666667, 0.0, -1.0, -2.220446049250313e-16, 0.0, 0.0, -2.666666666666667, 0.0, -1.0000000000000002, 0.0, 0.0, 0.0, -2.666666666666667, 0.0, -1.0, 0.0, 0.0, 0.0, -1.6666666666666665, 0.0, 0.0, -0.6666666666666667, 0.0, 0.0, -0.33333333333333326, 0.0, -1.0000000000000002, -0.33333333333333326, 0.0, 0.0, 0.0, 0.0, 0.0, 0.0, -2.0, 0.0, -1.0, -1.0, 0.0, -1.3333333333333333, -2.0, -0.33333333333333326, 0.0, 0.0, 0.0, 0.0, 0.0, 0.0, -1.6666666666666667, 0.0, -0.6666666666666667, 0.0, 0.0, 0.0, 0.0, 0.0, 0.0, -2.0, -0.6666666666666665, -0.6666666666666667, 0.0, 0.0, 0.0, -1.6666666666666667, -1.6666666666666667, 0.0, -0.33333333333333326, -1.0, 0.0, 0.0, 0.0, 0.0, 0.0, 0.0, -1.0, -0.6666666666666667, -0.33333333333333326, 0.0, 0.0, -1.0, 0.0, 0.0, -1.3333333333333333, -2.666666666666667, -1.6666666666666667, 0.0, 0.0, 0.0, 0.0, -2.0, 0.0, 0.0, 0.0, 0.0, -1.6666666666666667, -0.6666666666666667, -1.6666666666666667, 0.0, 0.0, 0.0, 0.0, 0.0, 0.0, -0.33333333333333326, 0.0, -0.6666666666666667, 0.0, 0.0, -1.0, 0.0, 0.0, 0.0, 0.0, 0.0, 0.0, -0.3333333333333335, 0.0, -0.33333333333333326, 0.0], "density": 0.0198025, "feasible": true, "X_len": 76, "mode": "AAD", "factor": 0, "obj_val": 287.0, "x": [1.0, 1.0, 1.0, 0.3333333333333335, 0.6666666666666665, 1.0, 1.0, 1.0, 1.0, 0.0, 0.6666666666666667, 0.0, 0.33333333333333326, 0.33333333333333326, 1.0, 0.0, 1.0, 0.0, 0.0, 0.0, 0.6666666666666667, 1.0, 1.0, 1.0, 0.0, 0.0, 0.6666666666666667, 1.0, 1.0, 1.0, 1.0, 0.0, 0.0, 1.0, 0.0, 0.0, 0.6666666666666665, 0.0, 0.0, 0.0, 1.0, 0.0, 0.3333333333333335, 0.33333333333333326, 0.6666666666666667, 0.0, 0.0, 1.0, 0.0, 1.0, 0.6666666666666667, 0.0, 1.0, 0.0, 0.0, 0.0, 1.0, 0.0, 0.0, 0.0, 0.0, 0.0, 0.6666666666666667, 1.0, 0.0, 1.0, 0.0, 1.0, 0.6666666666666667, 0.0, 1.0, 0.0, 0.0, 0.0, 0.0, 1.0, 1.0, 0.0, 0.0, 0.0, 0.0, 0.0, 1.0, 0.0, 0.0, 0.0, 0.0, 0.0, 0.3333333333333333, 0.0, 1.0, 0.0, 0.0, 0.0, 1.0, 1.0, 0.0, 1.0, 0.0, 0.0, 0.0, 0.0, 1.0, 0.0, 0.0, 1.0, 0.0, 0.0, 0.0, 0.0, 0.0, 0.0, 0.0, 1.0, 0.0, 0.0, 0.0, 0.0, 0.0, 0.0, 1.0, 0.0, 0.0, 0.0, 0.0, 0.0, 0.0, 0.0, 0.0, 0.0, 0.0, 0.0, 0.0, 0.0, 0.0, 0.0, 0.0, 1.0, 0.33333333333333326, 0.6666666666666667, 0.33333333333333326, 0.0, 1.0, 1.0, 0.0, 0.0, 0.0, 0.0, 0.0, 0.0, 0.0, 0.0, 0.0, 0.6666666666666667, 1.0, 0.3333333333333333, 0.33333333333333326, 0.0, 0.0, 0.0, 0.0, 0.0, 0.0, 0.0, 0.6666666666666667, 0.0, 0.0, 0.0, 0.0, 0.6666666666666667, 1.0, 1.0, 0.33333333333333326, 0.0, 0.0, 0.33333333333333326, 0.0, 0.0, 0.0, 0.0, 0.0, 0.0, 0.0, 0.0, 0.0, 0.0, 0.0, 0.0, 0.0, 0.0, 0.0, 0.0, 0.0, 0.0, 0.0, 0.0, 0.0, 0.0, 0.0, 1.0, 0.0, 0.0, 0.0, 0.0, 0.0, 0.0, 0.33333333333333326, 0.0, 0.0, 0.0, 0.0, 0.0, 0.0, 0.0, 0.0, 0.0, 0.0, 0.0, 0.0, 0.0, 0.0, 0.0, 0.0, 0.0, 0.0, 0.0, 0.0, 0.0, 0.0, 0.0, 0.0, 0.0, 0.0, 0.0, 0.0, 0.0, 0.0, 1.0, 0.0, 0.0, 0.6666666666666667, 0.0, 0.0, 0.0, 0.0, 0.0, 0.0, 0.0, 0.0, 0.0, 0.0, 0.0, 0.0, 0.0, 0.0, 0.0, 0.6666666666666667, 0.0, 0.0, 0.0, 0.0, 0.0, 0.0, 0.0, 0.0, 0.0, 0.0, 0.0, 0.0, 0.0, 0.0, 0.0, 0.0, 0.0, 0.0, 0.0, 0.0, 0.0, 0.0, 0.0, 0.0, 0.0, 0.0, 0.0, 0.0, 0.0, 0.0, 0.0, 0.0, 0.0, 0.0, 0.0, 0.0, 0.0, 0.0, 0.0, 0.0, 0.0, 0.0, 0.0, 0.0, 0.0, 0.0, 0.0, 0.0, 0.0, 0.0, 0.0, 0.0, 0.0, 0.0, 0.0, 0.0, 0.0, 0.0, 0.0, 0.33333333333333326, 0.0, 0.0, 0.0, 0.0, 0.0, 0.0, 0.0, 0.0, 0.0, 0.0, 0.0, 0.0, 0.0, 0.0, 0.0, 0.0, 0.0, 0.0, 0.0, 0.0, 0.0, 0.0, 0.0, 0.0, 0.0, 0.0, 0.0, 0.0, 0.0, 0.0, 0.0, 0.0, 0.0, 0.0, 0.0, 0.0, 0.0, 0.0, 0.0, 0.0, 0.0, 0.0, 0.0, 0.0, 0.0, 0.0, 0.0, 0.0, 0.0, 0.0, 0.0, 0.0, 0.0, 0.0, 0.0, 0.0, 0.0, 0.0, 0.0, 0.0, 0.0, 0.0, 0.0, 0.0, 0.0, 0.0, 0.0, 0.0, 0.0, 0.0, 0.0, 0.0, 0.0, 0.0, 0.0, 0.0, 0.0, 0.0, 0.0, 0.0, 0.0, 0.0, 0.0, 0.0, 0.0, 0.0, 0.0, 0.0, 0.0, 0.0, 0.0, 0.0, 0.0, 0.0, 0.0, 0.0, 0.0, 0.0, 0.0, 0.0, 0.0, 0.0, 0.0, 0.0, 0.0, 0.0, 0.0, 0.0, 0.0, 0.0, 0.0, 0.0, 0.0, 0.0, 0.0, 0.0, 0.0, 0.0, 0.0, 0.0, 0.0, 0.0, 0.0, 0.0, 0.0, 0.0, 0.0, 0.0, 0.0, 0.0, 0.0, 0.0, 0.0, 0.0, 0.0, 0.0, 0.0, 0.0, 0.0, 0.0, 0.0, 0.0, 0.0, 0.0, 0.0, 0.0, 0.0, 0.0, 0.0, 0.0, 0.0, 0.0, 0.0, 0.0, 0.0, 0.0, 0.0, 0.0, 0.6666666666666667, 0.0, 0.0, 0.0, 0.0, 0.0, 0.0, 0.0, 0.0, 0.0, 0.0, 0.0, 0.0, 0.0, 0.0, 0.0, 0.0, 0.0, 0.0, 0.0, 0.0, 0.0, 0.0, 0.0, 0.0, 0.0, 0.0, 0.0, 0.0, 0.0, 0.0, 0.0, 0.0, 0.0, 0.0, 0.0, 0.0, 0.0, 0.0, 0.0, 0.0, 0.0, 0.0, 0.0, 0.0, 0.0, 0.0, 0.0, 0.0, 0.0, 0.0, 0.0, 0.0, 0.0, 0.0, 0.0, 0.0, 0.0, 0.0, 0.0, 0.0, 0.0, 0.0, 0.0, 0.0, 0.0, 0.0, 0.0, 0.0, 0.0, 0.0, 0.0, 0.0, 0.33333333333333326, 0.0, 0.0, 0.0, 0.0, 0.0, 0.0, 0.0, 0.0, 0.0, 0.0, 0.0, 0.0, 0.0, 0.0, 0.0, 0.0, 0.0, 0.0, 0.0, 0.0, 0.0, 0.0, 0.0, 0.0, 0.0, 0.0, 0.0, 0.0, 0.0, 0.0, 0.0, 0.0, 0.0, 0.0, 0.0, 0.0, 0.0, 0.0, 0.0, 0.0, 0.0, 0.0, 0.0, 0.0, 0.0, 0.0, 0.0, 0.0, 0.0, 0.0, 0.0, 0.0, 0.0, 0.0, 0.0, 0.0, 0.0, 0.0, 0.0, 0.0, 0.0, 0.0, 0.0, 0.0, 0.0, 0.0, 0.0, 0.0, 0.0, 0.0, 0.0, 0.0, 0.0, 0.0, 0.0, 0.0, 0.0, 0.0, 0.0, 0.0, 0.0, 0.0, 0.0, 0.0, 0.0, 0.0, 0.0, 0.0, 0.0, 0.0, 0.0, 0.0, 0.0, 0.0, 0.0, 0.0, 0.0, 0.0, 0.0, 0.0, 0.0, 0.0, 0.0, 0.0, 0.0, 0.0, 0.0, 0.0, 0.0, 0.0, 0.0, 0.0, 0.0, 0.0, 0.0, 0.0, 0.0, 0.0, 0.0, 0.0, 0.0, 0.0, 0.0, 0.0, 0.0, 0.0, 0.0, 0.0, 0.0, 0.0, 0.0, 0.0, 0.0, 0.0, 0.0, 0.0, 0.0, 0.0, 0.0, 0.0, 0.0, 0.0, 0.0, 0.0, 0.0, 0.0, 0.0, 0.0, 0.0, 0.0, 0.0, 0.0, 0.0, 0.0, 0.0, 0.0, 0.0, 0.0, 0.0, 0.0, 0.0, 0.0, 0.0, 0.0, 0.0, 0.0, 0.0, 0.0, 0.0, 0.0, 0.0, 0.0, 0.0, 0.0, 0.0, 0.0, 0.0, 0.0, 0.0, 0.0, 0.0, 0.0, 0.0, 0.0, 0.0, 0.0, 0.0, 0.0, 0.0, 0.0, 0.0, 0.0, 0.0, 0.0, 0.0, 0.0, 0.0, 0.0, 0.0, 0.0, 0.0, 0.0, 0.0, 0.0, 0.0, 0.0, 0.0, 0.0, 0.0, 0.0, 0.0, 0.0, 0.0, 0.0, 0.0, 0.0, 0.0, 0.0, 0.0, 0.0, 0.0, 0.0, 0.0, 0.0, 0.0, 0.0, 0.0, 0.0, 0.0, 0.0, 0.0, 0.0, 0.0, 0.0, 0.0, 0.0, 0.0, 0.0, 0.0, 0.0, 0.0, 0.0, 0.0, 0.0, 0.0, 0.0, 0.0, 0.0, 0.0, 0.0, 0.0, 0.0, 0.0, 0.0, 0.0, 0.0, 0.0, 0.0, 0.0, 0.0, 0.0, 0.0, 0.0, 0.0, 0.0, 0.0, 0.0, 0.0, 0.0, 0.0, 0.0, 0.0, 0.0, 0.0, 0.0, 0.0, 0.0, 0.0, 0.0, 0.0, 0.0, 0.0, 0.0, 0.0, 0.0, 0.0, 0.0, 0.0, 0.0, 0.0, 0.0, 0.0, 0.0, 0.0, 0.0, 0.0, 0.0, 0.0, 0.0, 0.0, 0.0, 0.0, 0.0, 0.0, 0.0, 0.0, 0.0, 0.0, 0.0, 0.0, 0.0, 0.0, 0.0, 0.0, 0.0, 0.0, 0.0, 0.0, 0.0, 0.0, 0.0, 0.0, 0.0, 0.0, 0.0, 0.0, 0.0, 0.0, 0.0, 0.0, 0.0, 0.0, 0.0, 0.0, 0.0, 0.0, 0.0, 0.0, 0.0, 0.0, 0.0, 0.0, 0.0, 0.0, 0.0, 0.0, 0.0, 0.0, 0.0, 0.0, 0.0, 0.0, 0.0, 0.0, 0.0, 0.0, 0.0, 0.0, 0.0, 0.0, 0.0, 0.0, 0.0, 0.0, 0.0, 0.0, 0.0, 0.0, 0.0, 0.0, 0.0, 0.0, 0.0, 0.0, 0.0, 0.0, 0.0, 0.0, 0.0, 0.0, 0.0, 0.0, 0.0, 0.0, 0.0, 0.0, 0.0, 0.0, 0.0, 0.0, 0.0, 0.0, 0.0, 0.0, 0.0, 0.0, 0.0, 0.0, 0.0, 0.0, 0.0, 0.0, 0.0, 0.0, 0.0, 0.0, 0.0, 0.0, 0.0, 0.0, 0.0, 0.0, 0.0, 0.0, 0.0, 0.0, 0.0, 0.0, 0.0, 0.0, 0.0, 0.0, 0.0, 0.0, 0.0, 0.0, 0.0, 0.0, 0.0, 0.0, 0.0, 0.0, 0.0, 0.0, 0.0, 0.0, 0.0, 0.0, 0.0, 0.0, 0.0, 0.0, 0.0, 0.0, 0.0, 0.0, 0.0, 0.0, 0.0, 0.0, 0.0, 0.0, 0.0, 0.0, 0.0, 0.0, 0.0, 0.0, 0.0, 0.0, 0.0, 0.0, 0.0, 0.0, 0.0, 0.0, 0.0, 0.0, 0.0, 0.0, 0.0, 0.0, 0.0, 0.0, 0.0, 0.0, 0.0, 0.0, 0.0, 0.0, 0.0, 0.0, 0.0, 0.0, 0.0, 0.0, 0.0, 0.0, 0.0, 0.0, 0.0, 0.0, 0.0, 0.0, 0.0, 0.0, 0.0, 0.0, 0.0, 0.0, 0.0, 0.0, 0.0, 0.0, 0.0, 0.0, 0.0, 0.0, 0.0, 0.0, 0.0, 0.0, 0.0, 0.0, 0.0, 0.0, 0.0, 0.0, 0.0, 0.0, 0.0, 0.0, 0.0, 0.0, 0.0, 0.0, 0.0, 0.0, 0.0, 0.0, 0.0, 0.0, 0.0, 0.0, 0.0, 0.0, 0.0, 0.0, 0.0, 0.0, 0.0, 0.0, 0.0, 0.0, 0.0, 0.0, 0.0, 0.0, 0.0, 0.0, 0.0, 0.0, 0.0, 0.0, 0.0, 0.0, 0.0, 0.0, 0.0, 0.0, 0.0, 0.0, 0.0, 0.0, 0.0, 0.0, 0.0, 0.0, 0.0, 0.0, 0.0, 0.0, 0.0, 0.0, 0.0, 0.0, 0.0, 0.0, 0.0, 0.0, 0.0, 0.0, 0.0, 0.0, 0.0, 0.0, 0.0, 0.0, 0.0, 0.0, 0.0, 0.0, 0.0, 0.0, 0.0, 0.0, 0.0, 0.0, 0.0, 0.0, 0.0, 0.0, 0.0, 0.0, 0.0, 0.0, 0.0, 0.0, 0.0, 0.0, 0.0, 0.0, 0.0, 0.0, 0.0, 0.0, 0.0, 0.0, 0.0, 0.0, 0.0, 0.0, 0.0, 0.0, 0.0, 0.0, 0.0, 0.0, 0.0, 0.0, 0.0, 0.0, 0.0, 0.0, 0.0, 0.0, 0.0, 0.0, 0.0, 0.0, 0.0, 0.0, 0.0, 0.0, 0.0, 0.0, 0.0, 0.0, 0.0, 0.0, 0.0, 0.0, 0.0, 0.0, 0.0, 0.0, 0.0, 0.0, 0.0, 0.0, 0.0, 0.0, 0.0, 0.0, 0.0, 0.0, 0.0, 0.0, 0.0, 0.0, 0.0, 0.0, 0.0, 0.0, 0.0, 0.0, 0.0, 0.0, 0.0, 0.0, 0.0, 0.0, 0.0, 0.0, 0.0, 0.0, 0.0, 0.0, 0.0, 0.0, 0.0, 0.0, 0.0, 0.0, 0.0, 0.0, 0.0, 0.0, 0.0, 0.0, 0.0, 0.0, 0.0, 0.0, 0.0, 0.0, 0.0, 0.0, 0.0, 0.0, 0.0, 0.0, 0.0, 0.0, 0.0, 0.0, 0.0, 0.0, 0.0, 0.0, 0.0, 0.0, 0.0, 0.0, 0.0, 0.0, 0.0, 0.0, 0.0, 0.0, 0.0, 0.0, 0.0, 0.0, 0.0, 0.0, 0.0, 0.0, 0.0, 0.0, 0.0, 0.0, 0.0, 0.0, 0.0, 0.0, 0.0, 0.0, 0.0, 0.0, 0.0, 0.0, 0.0, 0.0, 0.0, 0.0, 0.0, 0.0, 0.0, 0.0, 0.0, 0.0, 0.0, 0.0, 0.0, 0.0, 0.0, 0.0, 0.0, 0.0, 0.0, 0.0, 0.0, 0.0, 0.0, 0.0, 0.0, 0.0, 0.0, 0.0, 0.0, 0.0, 0.0, 0.0, 0.0, 0.0, 0.0, 0.0, 0.0, 0.0, 0.0, 0.0, 0.0, 0.0, 0.0, 0.0, 0.0, 0.0, 0.0, 0.0, 0.0, 0.0, 0.0, 0.0, 0.0, 0.0, 0.0, 0.0, 0.0, 0.0, 0.0, 0.0, 0.0, 0.0, 0.0, 0.0, 0.0, 0.0, 0.0, 0.0, 0.0, 0.0, 0.0, 0.0, 0.0, 0.0, 0.0, 0.0, 0.0, 0.0, 0.0, 0.0, 0.0, 0.0, 0.0, 0.0, 0.0, 0.0, 0.0, 0.0, 0.0, 0.0, 0.0, 0.0, 0.0, 0.0, 0.0, 0.0, 0.0, 0.0, 0.0, 0.0, 0.0, 0.0, 0.0, 0.0, 0.0, 0.0, 0.0, 0.0, 0.0, 0.0, 0.0, 0.0, 0.0, 0.0, 0.0, 0.0, 0.0, 0.0, 0.0, 0.0, 0.0, 0.0, 0.0, 0.0, 0.0, 0.0, 0.0, 0.0, 0.0, 0.0, 0.0, 0.0, 0.0, 0.0, 0.0, 0.0, 0.0, 0.0, 0.0, 0.0, 0.0, 0.0, 0.0, 0.0, 0.0, 0.0, 0.0, 0.0, 0.0, 0.0, 0.0, 0.0, 0.0, 0.0, 0.0, 0.0, 0.0, 0.0, 0.0, 0.0, 0.0, 0.0, 0.0, 0.0, 0.0, 0.0, 0.0, 0.0, 0.0, 0.0, 0.0, 0.0, 0.0, 0.0, 0.0, 0.0, 0.0, 0.0, 0.0, 0.0, 0.0, 0.0, 0.0, 0.0, 0.0, 0.0, 0.0, 0.0, 0.0, 0.0, 0.0, 0.0, 0.0, 0.0, 0.0, 0.0, 0.0, 0.0, 0.0, 0.0, 0.0, 0.0, 0.0, 0.0, 0.0, 0.0, 0.0, 0.0, 0.0, 0.0, 0.0, 0.0, 0.0, 0.0, 0.0, 0.0, 0.0, 0.0, 0.0, 0.0, 0.0, 0.0, 0.0, 0.0, 0.0, 0.0, 0.0, 0.0, 0.0, 0.0, 0.0, 0.0, 0.0, 0.0, 0.0, 0.0, 0.0, 0.0, 0.0, 0.0, 0.0, 0.0, 0.0, 0.0, 0.0, 0.0, 0.0, 0.0, 0.0, 0.0, 0.0, 0.0, 0.0, 0.0, 0.0, 0.0, 0.0, 0.0, 0.0, 0.0, 0.0, 0.0, 0.0, 0.0, 0.0, 0.0, 0.0, 0.0, 0.0, 0.0, 0.0, 0.0, 0.0, 0.0, 0.0, 0.0, 0.0, 0.0, 0.0, 0.0, 0.0, 0.0, 0.0, 0.0, 0.0, 0.0, 0.0, 0.0, 0.0, 0.0, 0.0, 0.0, 0.0, 0.0, 0.0, 0.0, 0.0, 0.0, 0.0, 0.0, 0.0, 0.0, 0.0, 0.0, 0.0, 0.0, 0.0, 0.0, 0.0, 0.0, 0.0, 0.0, 0.0, 0.0, 0.0, 0.0, 0.0, 0.0, 0.0, 0.0, 0.0, 0.0, 0.0, 0.0, 0.0, 0.0, 0.0, 0.0, 0.0, 0.0, 0.0, 0.0, 0.0, 0.0, 0.0, 0.0, 0.0, 0.0, 0.0, 0.0, 0.0, 0.0, 0.0, 0.0, 0.0, 0.0, 0.0, 0.0, 0.0, 0.0, 0.0, 0.0, 0.0, 0.0, 0.0, 0.0, 0.0, 0.0, 0.0, 0.0, 0.0, 0.0, 0.0, 0.0, 0.0, 0.0, 0.0, 0.0, 0.0, 0.0, 0.0, 0.0, 0.0, 0.0, 0.0, 0.0, 0.0, 0.0, 0.0, 0.0, 0.0, 0.0, 0.0, 0.0, 0.0, 0.0, 0.0, 0.0, 0.0, 0.0, 0.0, 0.0, 0.0, 0.0, 0.0, 0.0, 0.0, 0.0, 0.0, 0.0, 0.0, 0.0, 0.0, 0.0, 0.0, 0.0, 0.0, 0.0, 0.0, 0.0, 0.0, 0.0, 0.0, 0.0, 0.0, 0.0, 0.0, 0.0, 0.0, 0.0, 0.0, 0.0, 0.0, 0.0, 0.0, 0.0, 0.0, 0.0, 0.0, 0.0, 0.0, 0.0, 0.0, 0.0, 0.0, 0.0, 0.0, 0.0, 0.0, 0.0, 0.0, 0.0, 0.0, 0.0, 0.0, 0.0, 0.0, 0.0, 0.0, 0.0, 0.0, 0.0, 0.0, 0.0, 0.0, 0.0, 0.0, 0.0, 0.0, 0.0, 0.0, 0.0, 0.0, 0.0, 0.0, 0.0, 0.0, 0.0, 0.0, 0.0, 0.0, 0.0, 0.0, 0.0, 0.0, 0.0, 0.0, 0.0, 0.0, 0.0, 0.0, 0.0, 0.0, 0.0, 0.0, 0.0, 0.0, 0.0, 0.0, 0.0, 0.0, 0.0, 0.0, 0.0, 0.0, 0.0, 0.0, 0.0, 0.0, 0.0, 0.0, 0.0, 0.0, 0.0, 0.0, 0.0, 0.0, 0.0, 0.0, 0.0, 0.0, 0.0, 0.0, 0.0, 0.0, 0.0, 0.0, 0.0, 0.0, 0.0, 0.0, 0.0, 0.0, 0.0, 0.0, 0.0, 0.0, 0.0, 0.0, 0.0, 0.0, 0.0, 0.0, 0.0, 0.0, 0.0, 0.0, 0.0, 0.0, 0.0, 0.0, 0.0, 0.0, 0.0, 0.0, 0.0, 0.0, 0.0, 0.0, 0.0, 0.0, 0.0, 0.0, 0.0, 0.0, 0.0, 0.0, 0.0, 0.0, 0.0, 0.0, 0.0, 0.0, 0.0, 0.0, 0.0, 0.0, 0.0, 0.0, 0.0, 0.0, 0.0, 0.0, 0.0, 0.0, 0.0, 0.0, 0.0, 0.0, 0.0, 0.0, 0.0, 0.0, 0.0, 0.0, 0.0, 0.0, 0.0, 0.0, 0.0, 0.0, 0.0, 0.0, 0.0, 0.0, 0.0, 0.0, 0.0, 0.0, 0.0, 0.0, 0.0, 0.0, 0.0, 0.0, 0.0, 0.0, 0.0, 0.0, 0.0, 0.0, 0.0, 0.0, 0.0, 0.0, 0.0, 0.0, 0.0, 0.0, 0.0, 0.0, 0.0, 0.0, 0.0, 0.0, 0.0, 0.0, 0.0, 0.0, 0.0, 0.0, 0.0, 0.0, 0.0, 0.0, 0.0, 0.0, 0.0, 0.0, 0.0, 0.0, 0.0, 0.0, 0.0, 0.0, 0.0, 0.0, 0.0, 0.0, 0.0, 0.0, 0.0, 0.0, 0.0, 0.0, 0.0, 0.0, 0.0, 0.0, 0.0, 0.0, 0.0, 0.0, 0.0, 0.0, 0.0, 0.0, 0.0, 0.0, 0.0, 0.0, 0.0, 0.0, 0.0, 0.0, 0.0, 0.0, 0.0, 0.0, 0.0, 0.0, 0.0, 0.0, 0.0, 0.0, 0.0, 0.0, 0.0, 0.0, 0.0, 0.0, 0.0, 0.0, 0.0, 0.0, 0.0, 0.0, 0.0, 0.0]}